Route 1: 0 72 31 32 85 13 83 60 0
Route 2: 0 11 75 89 47 64 69 90 8 57 0
Route 3: 0 12 88 55 9 14 15 0
Route 4: 0 58 23 34 52 94 7 5 0
Route 5: 0 67 86 99 41 76 6 0
Route 6: 0 22 91 35 78 36 70 19 39 10 44 68 0
Route 7: 0 48 95 16 29 43 79 92 97 77 62 63 0
Route 8: 0 80 45 56 28 82 26 73 1 0
Route 9: 0 59 49 33 51 37 40 2 0
Route 10: 0 42 98 4 24 20 50 100 38 66 0
Route 11: 0 3 81 18 61 71 93 53 0
Route 12: 0 74 30 27 21 17 65 54 96 25 0
Route 13: 0 46 84 87 0
